NAME          DCAP_3_4_2_300_SS154
ROWS
 N  OBJ
 L  CON1
 L  CON2
 L  CON3
 L  CON4
 L  CON5
 L  CON6
 L  CON7
 L  CON8
 L  CON9
 L  CON10
 L  CON11
 L  CON12
 E  CON13
 E  CON14
 E  CON15
 E  CON16
 E  CON17
 E  CON18
 E  CON19
 E  CON20
COLUMNS
    x[1,1]    OBJ       6.180167      CON1      1.000000    
    x[1,1]    CON7      -1.000000     CON8      -1.000000   
    x[1,2]    OBJ       5.039546      CON2      1.000000    
    x[1,2]    CON8      -1.000000   
    x[2,1]    OBJ       6.732585      CON3      1.000000    
    x[2,1]    CON9      -1.000000     CON10     -1.000000   
    x[2,2]    OBJ       7.443064      CON4      1.000000    
    x[2,2]    CON10     -1.000000   
    x[3,1]    OBJ       6.563535      CON5      1.000000    
    x[3,1]    CON11     -1.000000     CON12     -1.000000   
    x[3,2]    OBJ       6.054841      CON6      1.000000    
    x[3,2]    CON12     -1.000000   
    MARKER    'MARKER'                'INTORG'
    u[1,1]    OBJ       48.076654     CON1      -1.000000   
    u[1,2]    OBJ       49.466655     CON2      -1.000000   
    u[2,1]    OBJ       49.996186     CON3      -1.000000   
    u[2,2]    OBJ       32.230043     CON4      -1.000000   
    u[3,1]    OBJ       20.066487     CON5      -1.000000   
    u[3,2]    OBJ       27.484319     CON6      -1.000000   
    y[1,1,1]  OBJ       8.047375      CON7      1.062004    
    y[1,1,1]  CON13     1.000000    
    y[1,1,2]  OBJ       9.712695      CON8      1.136143    
    y[1,1,2]  CON14     1.000000    
    y[1,2,1]  OBJ       6.786644      CON7      1.345815    
    y[1,2,1]  CON15     1.000000    
    y[1,2,2]  OBJ       5.373508      CON8      1.360277    
    y[1,2,2]  CON16     1.000000    
    y[1,3,1]  OBJ       6.402671      CON7      0.887636    
    y[1,3,1]  CON17     1.000000    
    y[1,3,2]  OBJ       6.375351      CON8      0.573412    
    y[1,3,2]  CON18     1.000000    
    y[1,4,1]  OBJ       8.186648      CON7      0.731064    
    y[1,4,1]  CON19     1.000000    
    y[1,4,2]  OBJ       9.688576      CON8      0.851812    
    y[1,4,2]  CON20     1.000000    
    y[2,1,1]  OBJ       6.363487      CON9      1.062004    
    y[2,1,1]  CON13     1.000000    
    y[2,1,2]  OBJ       5.059976      CON10     1.136143    
    y[2,1,2]  CON14     1.000000    
    y[2,2,1]  OBJ       5.443644      CON9      1.345815    
    y[2,2,1]  CON15     1.000000    
    y[2,2,2]  OBJ       6.390977      CON10     1.360277    
    y[2,2,2]  CON16     1.000000    
    y[2,3,1]  OBJ       8.332705      CON9      0.887636    
    y[2,3,1]  CON17     1.000000    
    y[2,3,2]  OBJ       7.812135      CON10     0.573412    
    y[2,3,2]  CON18     1.000000    
    y[2,4,1]  OBJ       6.352722      CON9      0.731064    
    y[2,4,1]  CON19     1.000000    
    y[2,4,2]  OBJ       5.223482      CON10     0.851812    
    y[2,4,2]  CON20     1.000000    
    y[3,1,1]  OBJ       7.414062      CON11     1.062004    
    y[3,1,1]  CON13     1.000000    
    y[3,1,2]  OBJ       7.814721      CON12     1.136143    
    y[3,1,2]  CON14     1.000000    
    y[3,2,1]  OBJ       9.648215      CON11     1.345815    
    y[3,2,1]  CON15     1.000000    
    y[3,2,2]  OBJ       9.235094      CON12     1.360277    
    y[3,2,2]  CON16     1.000000    
    y[3,3,1]  OBJ       6.732956      CON11     0.887636    
    y[3,3,1]  CON17     1.000000    
    y[3,3,2]  OBJ       7.820087      CON12     0.573412    
    y[3,3,2]  CON18     1.000000    
    y[3,4,1]  OBJ       7.639102      CON11     0.731064    
    y[3,4,1]  CON19     1.000000    
    y[3,4,2]  OBJ       8.739230      CON12     0.851812    
    y[3,4,2]  CON20     1.000000    
    z[1,1]    OBJ       961.549082    CON13     1.000000    
    z[1,2]    OBJ       504.796555    CON14     1.000000    
    z[2,1]    OBJ       623.400074    CON15     1.000000    
    z[2,2]    OBJ       517.342397    CON16     1.000000    
    z[3,1]    OBJ       588.383294    CON17     1.000000    
    z[3,2]    OBJ       569.398698    CON18     1.000000    
    z[4,1]    OBJ       944.695291    CON19     1.000000    
    z[4,2]    OBJ       552.613780    CON20     1.000000    
    MARKER    'MARKER'                 'INTEND'
RHS
    RHS       CON1      -0.000000     CON2      -0.000000   
    RHS       CON3      -0.000000     CON4      -0.000000   
    RHS       CON5      -0.000000     CON6      -0.000000   
    RHS       CON7      -0.000000     CON8      -0.000000   
    RHS       CON9      -0.000000     CON10     -0.000000   
    RHS       CON11     -0.000000     CON12     -0.000000   
    RHS       CON13     1.000000      CON14     1.000000    
    RHS       CON15     1.000000      CON16     1.000000    
    RHS       CON17     1.000000      CON18     1.000000    
    RHS       CON19     1.000000      CON20     1.000000    
BOUNDS
 BV BOUND     u[1,1]  
 BV BOUND     u[1,2]  
 BV BOUND     u[2,1]  
 BV BOUND     u[2,2]  
 BV BOUND     u[3,1]  
 BV BOUND     u[3,2]  
 BV BOUND     y[1,1,1]
 BV BOUND     y[1,1,2]
 BV BOUND     y[1,2,1]
 BV BOUND     y[1,2,2]
 BV BOUND     y[1,3,1]
 BV BOUND     y[1,3,2]
 BV BOUND     y[1,4,1]
 BV BOUND     y[1,4,2]
 BV BOUND     y[2,1,1]
 BV BOUND     y[2,1,2]
 BV BOUND     y[2,2,1]
 BV BOUND     y[2,2,2]
 BV BOUND     y[2,3,1]
 BV BOUND     y[2,3,2]
 BV BOUND     y[2,4,1]
 BV BOUND     y[2,4,2]
 BV BOUND     y[3,1,1]
 BV BOUND     y[3,1,2]
 BV BOUND     y[3,2,1]
 BV BOUND     y[3,2,2]
 BV BOUND     y[3,3,1]
 BV BOUND     y[3,3,2]
 BV BOUND     y[3,4,1]
 BV BOUND     y[3,4,2]
 BV BOUND     z[1,1]  
 BV BOUND     z[1,2]  
 BV BOUND     z[2,1]  
 BV BOUND     z[2,2]  
 BV BOUND     z[3,1]  
 BV BOUND     z[3,2]  
 BV BOUND     z[4,1]  
 BV BOUND     z[4,2]  
ENDATA
